31711
50,169,215,299,539,565,721,732,785,811,944,951,1014,1043,1269,1286,1479,1528,1601,1673,1754,1890,1991,1994,2135,2165,2173,2442,2461,2477,2570,2647,2871,2927,3051,3197,3283,3406,3495,3614,3616,3727,3795,3802,3808,3828,3861,3879,4019,4091,4131,4267,4337,4368,4547,4559,4675
